73
120
96	10
95	7
94	6
93	10
92	6
91	8
90	10
89	6
88	5
87	10
86	8
85	8
84	10
83	6
82	4
81	6
80	9
79	3
78	4
77	8
76	4
75	10
74	7
73	7
72	6
71	6
70	4
69	6
68	8
67	6
66	4
65	5
64	11
63	5
62	11
61	8
60	5
59	6
58	9
57	6
56	6
55	5
54	3
53	7
52	4
51	2
50	7
49	4
48	11
47	9
46	11
45	6
44	5
43	4
42	5
41	7
40	11
39	11
38	5
37	12
36	5
35	7
34	4
33	9
32	5
31	10
30	5
29	10
28	3
27	8
26	8
25	6
24	7
